sat
(model 
  (define-fun s2 () (Array Int Int Int)
    (_ as-array k!1))
  (define-fun s3 () (Array Int Int Int)
    (_ as-array k!2))
  (define-fun s1 () (Array Int Int Int)
    (_ as-array k!0))
  (define-fun k!1 ((x!1 Int) (x!2 Int)) Int
    (ite (and (= x!1 1) (= x!2 2)) 4
    (ite (and (= x!1 0) (= x!2 0)) 3
      7719)))
  (define-fun k!2 ((x!1 Int) (x!2 Int)) Int
    (ite (and (= x!1 1) (= x!2 2)) 8859
    (ite (and (= x!1 0) (= x!2 0)) 8
      8955)))
  (define-fun k!0 ((x!1 Int) (x!2 Int)) Int
    (ite (and (= x!1 1) (= x!2 2)) 8855
    (ite (and (= x!1 0) (= x!2 0)) 5
      1236)))
)
